NAME PortOpt_n10_m4_inst_2
ROWS
 N  OBJ
 E  budget  
 G  return  
 L  uncertain_risk
 L  fixed_risk
COLUMNS
    asset[0]  budget    1
    asset[0]  return    3.5589522542774121e+00
    asset[1]  budget    1
    asset[1]  return    3.0491048423925009e+00
    asset[2]  budget    1
    asset[2]  return    2.5909037001790969e+00
    asset[3]  budget    1
    asset[3]  return    4.0036942145691272e+00
    asset[4]  budget    1
    asset[4]  return    1.7092335828289891e+00
    asset[5]  budget    1
    asset[5]  return    1.3675767298567443e+00
    asset[6]  budget    1
    asset[6]  return    1.0929878340795496e+00
    asset[7]  budget    1
    asset[7]  return    2.8388223998219959e+00
    asset[8]  budget    1
    asset[8]  return    4.0217306513515831e+00
    asset[9]  budget    1
    asset[9]  return    1.8147001344823896e+00
    return_var  OBJ       -1
    return_var  return    -1
    uncertain_risk_var  OBJ       1
    uncertain_risk_var  uncertain_risk  -1
    fixed_risk_var  OBJ       1
    fixed_risk_var  fixed_risk  -1
RHS
    RHS1      budget    1
BOUNDS
QCMATRIX   uncertain_risk
    asset[0]  asset[0]  3.4602857880038092e-02
    asset[0]  asset[1]  -2.2662437969898218e-02
    asset[1]  asset[0]  -2.2662437969898218e-02
    asset[0]  asset[2]  9.5281371649460242e-04
    asset[2]  asset[0]  9.5281371649460242e-04
    asset[0]  asset[3]  -3.6919336396201569e-02
    asset[3]  asset[0]  -3.6919336396201569e-02
    asset[0]  asset[4]  -2.9354644207300020e-02
    asset[4]  asset[0]  -2.9354644207300020e-02
    asset[0]  asset[5]  -6.8613675324257183e-03
    asset[5]  asset[0]  -6.8613675324257183e-03
    asset[0]  asset[6]  -3.1419352033013229e-02
    asset[6]  asset[0]  -3.1419352033013229e-02
    asset[0]  asset[7]  -7.6755585054039482e-02
    asset[7]  asset[0]  -7.6755585054039482e-02
    asset[0]  asset[8]  -1.6958318861334528e-02
    asset[8]  asset[0]  -1.6958318861334528e-02
    asset[0]  asset[9]  1.4973900245711842e-02
    asset[9]  asset[0]  1.4973900245711842e-02
    asset[1]  asset[1]  2.3305577751931188e-02
    asset[1]  asset[2]  -3.1077421297721265e-02
    asset[2]  asset[1]  -3.1077421297721265e-02
    asset[1]  asset[3]  5.2371404325803103e-02
    asset[3]  asset[1]  5.2371404325803103e-02
    asset[1]  asset[4]  1.7675431823367359e-02
    asset[4]  asset[1]  1.7675431823367359e-02
    asset[1]  asset[5]  2.5489786412859289e-02
    asset[5]  asset[1]  2.5489786412859289e-02
    asset[1]  asset[6]  3.0335858243915399e-02
    asset[6]  asset[1]  3.0335858243915399e-02
    asset[1]  asset[7]  5.7383719426642110e-02
    asset[7]  asset[1]  5.7383719426642110e-02
    asset[1]  asset[8]  3.0790671365457406e-02
    asset[8]  asset[1]  3.0790671365457406e-02
    asset[1]  asset[9]  -2.8496112720558221e-02
    asset[9]  asset[1]  -2.8496112720558221e-02
    asset[2]  asset[2]  1.5483924076086350e-01
    asset[2]  asset[3]  -1.1809193911628288e-01
    asset[3]  asset[2]  -1.1809193911628288e-01
    asset[2]  asset[4]  3.3573774220731982e-02
    asset[4]  asset[2]  3.3573774220731982e-02
    asset[2]  asset[5]  -1.0093087645854858e-01
    asset[5]  asset[2]  -1.0093087645854858e-01
    asset[2]  asset[6]  -1.9143009737064370e-02
    asset[6]  asset[2]  -1.9143009737064370e-02
    asset[2]  asset[7]  -8.2249995883493174e-03
    asset[7]  asset[2]  -8.2249995883493174e-03
    asset[2]  asset[8]  -1.0835456906733799e-01
    asset[8]  asset[2]  -1.0835456906733799e-01
    asset[2]  asset[9]  9.9007434941739747e-02
    asset[9]  asset[2]  9.9007434941739747e-02
    asset[3]  asset[3]  1.5652198084579982e-01
    asset[3]  asset[4]  2.9007116756602468e-02
    asset[4]  asset[3]  2.9007116756602468e-02
    asset[3]  asset[5]  1.0751818916195999e-01
    asset[5]  asset[3]  1.0751818916195999e-01
    asset[3]  asset[6]  6.7476601332294717e-02
    asset[6]  asset[3]  6.7476601332294717e-02
    asset[3]  asset[7]  1.3695753913321851e-01
    asset[7]  asset[3]  1.3695753913321851e-01
    asset[3]  asset[8]  9.7111340129093282e-02
    asset[8]  asset[3]  9.7111340129093282e-02
    asset[3]  asset[9]  -9.7898195689307771e-02
    asset[9]  asset[3]  -9.7898195689307771e-02
    asset[4]  asset[4]  5.2732457037914390e-02
    asset[4]  asset[5]  1.4203522614903955e-03
    asset[5]  asset[4]  1.4203522614903955e-03
    asset[4]  asset[6]  4.0810368088988871e-02
    asset[6]  asset[4]  4.0810368088988871e-02
    asset[4]  asset[7]  1.0360147448687379e-01
    asset[7]  asset[4]  1.0360147448687379e-01
    asset[4]  asset[8]  -1.2357572208011439e-02
    asset[8]  asset[4]  -1.2357572208011439e-02
    asset[4]  asset[9]  4.3336092855553957e-03
    asset[9]  asset[4]  4.3336092855553957e-03
    asset[5]  asset[5]  9.3544427265066982e-02
    asset[5]  asset[6]  2.9851166496974529e-02
    asset[6]  asset[5]  2.9851166496974529e-02
    asset[5]  asset[7]  6.8096755294075287e-02
    asset[7]  asset[5]  6.8096755294075287e-02
    asset[5]  asset[8]  7.3610039091822010e-02
    asset[8]  asset[5]  7.3610039091822010e-02
    asset[5]  asset[9]  -7.7475319086446753e-02
    asset[9]  asset[5]  -7.7475319086446753e-02
    asset[6]  asset[6]  4.9009972102302096e-02
    asset[6]  asset[7]  1.0068729552127836e-01
    asset[7]  asset[6]  1.0068729552127836e-01
    asset[6]  asset[8]  2.4562623296980734e-02
    asset[8]  asset[6]  2.4562623296980734e-02
    asset[6]  asset[9]  -2.7080680072048210e-02
    asset[9]  asset[6]  -2.7080680072048210e-02
    asset[7]  asset[7]  2.6610053394051458e-01
    asset[7]  asset[8]  3.9567401215403919e-02
    asset[8]  asset[7]  3.9567401215403919e-02
    asset[7]  asset[9]  -5.4307549299869161e-02
    asset[9]  asset[7]  -5.4307549299869161e-02
    asset[8]  asset[8]  8.4477041919863993e-02
    asset[8]  asset[9]  -7.6804952187835993e-02
    asset[9]  asset[8]  -7.6804952187835993e-02
    asset[9]  asset[9]  7.3851660895305482e-02
QCMATRIX   fixed_risk
    asset[0]  asset[0]  3.1820366059783856e-03
    asset[1]  asset[1]  2.2122049402139746e-03
    asset[2]  asset[2]  1.4413200915099764e-02
    asset[3]  asset[3]  1.5268131120090705e-02
    asset[4]  asset[4]  5.7593932690138952e-03
    asset[5]  asset[5]  1.0226178062876715e-02
    asset[6]  asset[6]  4.9030165328139792e-03
    asset[7]  asset[7]  2.4731524628126830e-02
    asset[8]  asset[8]  9.2329793956900698e-03
    asset[9]  asset[9]  8.2576293655718981e-03
ENDATA
